letting n =  10
letting blocks =  [[1, 6], [1, 7], [1, 8], [1, 9], [1, 10], [2, 1], [2, 5], [2, 9], [3, 2], [3, 3], [3, 5], [4, 2], [4, 6], [4, 7], [4, 8], [4, 9], [4, 10], [5, 7], [6, 1], [6, 3], [7, 2], [7, 6], [7, 7], [7, 8], [9, 7], [9, 10], [10, 1], [10, 2], [10, 5], [10, 9]]
